p cnf 59 192
1 2 3 4 5 6 0
-1 -11 0
-1 -17 0
-1 -23 0
-1 -26 0
-1 -33 0
-1 -47 0
-1 -53 0
-11 -17 0
-11 -23 0
-11 -26 0
-11 -33 0
-11 -47 0
-11 -53 0
-17 -23 0
-17 -26 0
-17 -33 0
-17 -47 0
-17 -53 0
-23 -26 0
-23 -33 0
-23 -47 0
-23 -53 0
-26 -33 0
-26 -47 0
-26 -53 0
-33 -47 0
-33 -53 0
-47 -53 0
-2 -7 0
-2 -12 0
-2 -24 0
-2 -27 0
-2 -40 0
-2 -54 0
-7 -12 0
-7 -24 0
-7 -27 0
-7 -40 0
-7 -54 0
-12 -24 0
-12 -27 0
-12 -40 0
-12 -54 0
-24 -27 0
-24 -40 0
-24 -54 0
-27 -40 0
-27 -54 0
-40 -54 0
-8 -18 0
-8 -25 0
-8 -28 0
-8 -34 0
-8 -41 0
-8 -48 0
-8 -55 0
-18 -25 0
-18 -28 0
-18 -34 0
-18 -41 0
-18 -48 0
-18 -55 0
-25 -28 0
-25 -34 0
-25 -41 0
-25 -48 0
-25 -55 0
-28 -34 0
-28 -41 0
-28 -48 0
-28 -55 0
-34 -41 0
-34 -48 0
-34 -55 0
-41 -48 0
-41 -55 0
-48 -55 0
-3 -13 0
-3 -19 0
-3 -29 0
-3 -35 0
-3 -42 0
-3 -56 0
-13 -19 0
-13 -29 0
-13 -35 0
-13 -42 0
-13 -56 0
-19 -29 0
-19 -35 0
-19 -42 0
-19 -56 0
-29 -35 0
-29 -42 0
-29 -56 0
-35 -42 0
-35 -56 0
-42 -56 0
-9 -14 0
-9 -20 0
-9 -36 0
-9 -43 0
-9 -49 0
-9 -57 0
-14 -20 0
-14 -36 0
-14 -43 0
-14 -49 0
-14 -57 0
-20 -36 0
-20 -43 0
-20 -49 0
-20 -57 0
-36 -43 0
-36 -49 0
-36 -57 0
-43 -49 0
-43 -57 0
-49 -57 0
-4 -15 0
-4 -30 0
-4 -37 0
-4 -44 0
-4 -50 0
-15 -30 0
-15 -37 0
-15 -44 0
-15 -50 0
-30 -37 0
-30 -44 0
-30 -50 0
-37 -44 0
-37 -50 0
-44 -50 0
-5 -21 0
-5 -31 0
-5 -38 0
-5 -45 0
-5 -51 0
-5 -58 0
-21 -31 0
-21 -38 0
-21 -45 0
-21 -51 0
-21 -58 0
-31 -38 0
-31 -45 0
-31 -51 0
-31 -58 0
-38 -45 0
-38 -51 0
-38 -58 0
-45 -51 0
-45 -58 0
-51 -58 0
-6 -10 0
-6 -16 0
-6 -22 0
-6 -32 0
-6 -39 0
-6 -46 0
-6 -52 0
-6 -59 0
-10 -16 0
-10 -22 0
-10 -32 0
-10 -39 0
-10 -46 0
-10 -52 0
-10 -59 0
-16 -22 0
-16 -32 0
-16 -39 0
-16 -46 0
-16 -52 0
-16 -59 0
-22 -32 0
-22 -39 0
-22 -46 0
-22 -52 0
-22 -59 0
-32 -39 0
-32 -46 0
-32 -52 0
-32 -59 0
-39 -46 0
-39 -52 0
-39 -59 0
-46 -52 0
-46 -59 0
-52 -59 0
